\ENCODING=ISO-8859-1
\Problem name: IloCplex

Minimize
 obj: 30 p_1 + 3000 y_1 + 30 p_2 + 3000 y_2 + 30 p_3 + 3000 y_3 + 3 I_2_1
      + 3 I_3_1 + 3 I_2_2 + 3 I_3_2 + 3 I_2_3 + 3 I_3_3 + 169 z_1_1 + 169 z_1_2
      + 169 z_1_3 + 141 z_2_1 + 141 z_2_2 + 141 z_2_3
Subject To
 Production_1#0:            p_1 + I_1_0 - q_1_1 - q_2_1 - I_1_1  = 0
 Production_2#1:            p_2 + I_1_1 - q_1_2 - q_2_2 - I_1_2  = 0
 Production_3#2:            p_3 + I_1_2 - q_1_3 - q_2_3 - I_1_3  = 0
 Concervation(1_1)#3:       - I_2_1 + q_1_1 + I_2_0  = 10
 Concervation(2_1)#4:       I_2_1 - I_2_2 + q_1_2  = 20
 Concervation(3_1)#5:       I_2_2 - I_2_3 + q_1_3  = 30
 Concervation(1_2)#6:       - I_3_1 + q_2_1 + I_3_0  = 40
 Concervation(2_2)#7:       I_3_1 - I_3_2 + q_2_2  = 50
 Concervation(3_2)#8:       I_3_2 - I_3_3 + q_2_3  = 60
 c10#9:                     x31 + x32  = 1
 Setup(0)#10:               - y_1 + x31 <= 0
 c12#11:                    x33 + x34  = 1
 Setup(1)#12:               - y_2 + x33 <= 0
 c14#13:                    x35 + x36  = 1
 Setup(2)#14:               - y_3 + x35 <= 0
 CapaciteClient(1_1)#15:    q_1_1 + I_2_0 <= 30
 CapaciteClient(2_1)#16:    I_2_1 + q_1_2 <= 30
 CapaciteClient(3_1)#17:    I_2_2 + q_1_3 <= 30
 CapaciteClient(1_2)#18:    q_2_1 + I_3_0 <= 60
 CapaciteClient(2_2)#19:    I_3_1 + q_2_2 <= 60
 CapaciteClient(3_2)#20:    I_3_2 + q_2_3 <= 60
 CapaciteFournisseur(1)#21: I_1_0 <= 10000000000
 CapaciteFournisseur(2)#22: I_1_1 <= 10000000000
 CapaciteFournisseur(3)#23: I_1_2 <= 10000000000
 Z(Ie0;te0)#24:             - 32767 z_1_1 + q_1_1 <= 0
 Z(Ie0;te1)#25:             - 32767 z_1_2 + q_1_2 <= 0
 Z(Ie0;te2)#26:             - 32767 z_1_3 + q_1_3 <= 0
 Z(Ie1;te0)#27:             - 32767 z_2_1 + q_2_1 <= 0
 Z(Ie1;te1)#28:             - 32767 z_2_2 + q_2_2 <= 0
 Z(Ie1;te2)#29:             - 32767 z_2_3 + q_2_3 <= 0
 i1: x32 = 1 <-> p_1  = 0
 i2: x34 = 1 <-> p_2  = 0
 i3: x36 = 1 <-> p_3  = 0
Bounds
 0 <= y_1 <= 1
 0 <= y_2 <= 1
 0 <= y_3 <= 1
 0 <= I_2_1 <= 30
 0 <= I_3_1 <= 60
 0 <= I_2_2 <= 30
 0 <= I_3_2 <= 60
 0 <= I_2_3 <= 30
 0 <= I_3_3 <= 60
 0 <= z_1_1 <= 1
 0 <= z_1_2 <= 1
 0 <= z_1_3 <= 1
 0 <= z_2_1 <= 1
 0 <= z_2_2 <= 1
 0 <= z_2_3 <= 1
      I_1_0 = 1
 0 <= I_1_1 <= 10000000000
 0 <= I_1_2 <= 10000000000
 0 <= I_1_3 <= 10000000000
      I_2_0 = 2
      I_3_0 = 3
 0 <= x31 <= 1
 0 <= x32 <= 1
 0 <= x33 <= 1
 0 <= x34 <= 1
 0 <= x35 <= 1
 0 <= x36 <= 1
Binaries
 y_1  y_2  y_3  z_1_1  z_1_2  z_1_3  z_2_1  z_2_2  z_2_3  x31  x32  x33  x34 
 x35  x36 
End
